job_count = 10 ;
duration = [|4, 6|14, 3|14, 1|18, 7|17, 3|16, 6|2, 8|19, 3|5, 5|17, 4|] ;
machine_count = 2 ;
cost = [|10, 30|11, 20|12, 25|19, 29|15, 31|14, 34|13, 35|19, 34|14, 28|11, 38|] ;
deadline = [25, 25, 25, 25, 25, 25, 25, 25, 25, 25] ;
release = [0, 0, 0, 0, 0, 0, 0, 0, 0, 0] ;
resource = [|9, 9|9, 9|5, 5|8, 8|2, 2|8, 8|4, 4|1, 1|9, 9|5, 5|] ;
capacities = [10, 10] ;
